p ds 484 924
1 2
1 23
2 3
2 24
3 25
3 4
4 26
4 5
5 27
5 6
6 28
6 7
7 29
7 8
8 9
8 30
9 10
9 31
10 11
10 32
11 33
11 12
12 34
12 13
13 35
13 14
14 36
14 15
15 37
15 16
16 17
16 38
17 18
17 39
18 19
18 40
19 41
19 20
20 42
20 21
21 43
21 22
22 44
23 45
23 24
24 25
24 46
25 26
25 47
26 27
26 48
27 49
27 28
28 50
28 29
29 51
29 30
30 52
30 31
31 53
31 32
32 33
32 54
33 34
33 55
34 35
34 56
35 57
35 36
36 58
36 37
37 59
37 38
38 60
38 39
39 61
39 40
40 41
40 62
41 42
41 63
42 43
42 64
43 65
43 44
44 66
45 67
45 46
46 68
46 47
47 69
47 48
48 49
48 70
49 50
49 71
50 51
50 72
51 73
51 52
52 74
52 53
53 75
53 54
54 76
54 55
55 77
55 56
56 57
56 78
57 58
57 79
58 59
58 80
59 81
59 60
60 82
60 61
61 83
61 62
62 84
62 63
63 85
63 64
64 65
64 86
65 66
65 87
66 88
67 89
67 68
68 90
68 69
69 91
69 70
70 92
70 71
71 93
71 72
72 73
72 94
73 74
73 95
74 75
74 96
75 97
75 76
76 98
76 77
77 99
77 78
78 100
78 79
79 101
79 80
80 81
80 102
81 82
81 103
82 83
82 104
83 105
83 84
84 106
84 85
85 107
85 86
86 108
86 87
87 109
87 88
88 110
89 90
89 111
90 91
90 112
91 113
91 92
92 114
92 93
93 115
93 94
94 116
94 95
95 117
95 96
96 97
96 118
97 98
97 119
98 99
98 120
99 121
99 100
100 122
100 101
101 123
101 102
102 124
102 103
103 125
103 104
104 105
104 126
105 106
105 127
106 107
106 128
107 129
107 108
108 130
108 109
109 131
109 110
110 132
111 133
111 112
112 113
112 134
113 114
113 135
114 115
114 136
115 137
115 116
116 138
116 117
117 139
117 118
118 140
118 119
119 141
119 120
120 121
120 142
121 122
121 143
122 123
122 144
123 145
123 124
124 146
124 125
125 147
125 126
126 148
126 127
127 149
127 128
128 129
128 150
129 130
129 151
130 131
130 152
131 153
131 132
132 154
133 155
133 134
134 156
134 135
135 157
135 136
136 137
136 158
137 138
137 159
138 139
138 160
139 161
139 140
140 162
140 141
141 163
141 142
142 164
142 143
143 165
143 144
144 145
144 166
145 146
145 167
146 147
146 168
147 169
147 148
148 170
148 149
149 171
149 150
150 172
150 151
151 173
151 152
152 153
152 174
153 154
153 175
154 176
155 177
155 156
156 178
156 157
157 179
157 158
158 180
158 159
159 181
159 160
160 161
160 182
161 162
161 183
162 163
162 184
163 185
163 164
164 186
164 165
165 187
165 166
166 188
166 167
167 189
167 168
168 169
168 190
169 170
169 191
170 171
170 192
171 193
171 172
172 194
172 173
173 195
173 174
174 196
174 175
175 197
175 176
176 198
177 178
177 199
178 179
178 200
179 201
179 180
180 202
180 181
181 203
181 182
182 204
182 183
183 205
183 184
184 185
184 206
185 186
185 207
186 187
186 208
187 209
187 188
188 210
188 189
189 211
189 190
190 212
190 191
191 213
191 192
192 193
192 214
193 194
193 215
194 195
194 216
195 217
195 196
196 218
196 197
197 219
197 198
198 220
199 221
199 200
200 201
200 222
201 202
201 223
202 203
202 224
203 225
203 204
204 226
204 205
205 227
205 206
206 228
206 207
207 229
207 208
208 209
208 230
209 210
209 231
210 211
210 232
211 233
211 212
212 234
212 213
213 235
213 214
214 236
214 215
215 237
215 216
216 217
216 238
217 218
217 239
218 219
218 240
219 241
219 220
220 242
221 243
221 222
222 244
222 223
223 245
223 224
224 225
224 246
225 226
225 247
226 227
226 248
227 249
227 228
228 250
228 229
229 251
229 230
230 252
230 231
231 253
231 232
232 233
232 254
233 234
233 255
234 235
234 256
235 257
235 236
236 258
236 237
237 259
237 238
238 260
238 239
239 261
239 240
240 241
240 262
241 242
241 263
242 264
243 265
243 244
244 266
244 245
245 267
245 246
246 268
246 247
247 269
247 248
248 249
248 270
249 250
249 271
250 251
250 272
251 273
251 252
252 274
252 253
253 275
253 254
254 276
254 255
255 277
255 256
256 257
256 278
257 258
257 279
258 259
258 280
259 281
259 260
260 282
260 261
261 283
261 262
262 284
262 263
263 285
263 264
264 286
265 266
265 287
266 267
266 288
267 289
267 268
268 290
268 269
269 291
269 270
270 292
270 271
271 293
271 272
272 273
272 294
273 274
273 295
274 275
274 296
275 297
275 276
276 298
276 277
277 299
277 278
278 300
278 279
279 301
279 280
280 281
280 302
281 282
281 303
282 283
282 304
283 305
283 284
284 306
284 285
285 307
285 286
286 308
287 309
287 288
288 289
288 310
289 290
289 311
290 291
290 312
291 313
291 292
292 314
292 293
293 315
293 294
294 316
294 295
295 317
295 296
296 297
296 318
297 298
297 319
298 299
298 320
299 321
299 300
300 322
300 301
301 323
301 302
302 324
302 303
303 325
303 304
304 305
304 326
305 306
305 327
306 307
306 328
307 329
307 308
308 330
309 331
309 310
310 332
310 311
311 333
311 312
312 313
312 334
313 314
313 335
314 315
314 336
315 337
315 316
316 338
316 317
317 339
317 318
318 340
318 319
319 341
319 320
320 321
320 342
321 322
321 343
322 323
322 344
323 345
323 324
324 346
324 325
325 347
325 326
326 348
326 327
327 349
327 328
328 329
328 350
329 330
329 351
330 352
331 353
331 332
332 354
332 333
333 355
333 334
334 356
334 335
335 357
335 336
336 337
336 358
337 338
337 359
338 339
338 360
339 361
339 340
340 362
340 341
341 363
341 342
342 364
342 343
343 365
343 344
344 345
344 366
345 346
345 367
346 347
346 368
347 369
347 348
348 370
348 349
349 371
349 350
350 372
350 351
351 373
351 352
352 374
353 354
353 375
354 355
354 376
355 377
355 356
356 378
356 357
357 379
357 358
358 380
358 359
359 381
359 360
360 361
360 382
361 362
361 383
362 363
362 384
363 385
363 364
364 386
364 365
365 387
365 366
366 388
366 367
367 389
367 368
368 369
368 390
369 370
369 391
370 371
370 392
371 393
371 372
372 394
372 373
373 395
373 374
374 396
375 397
375 376
376 377
376 398
377 378
377 399
378 379
378 400
379 401
379 380
380 402
380 381
381 403
381 382
382 404
382 383
383 405
383 384
384 385
384 406
385 386
385 407
386 387
386 408
387 409
387 388
388 410
388 389
389 411
389 390
390 412
390 391
391 413
391 392
392 393
392 414
393 394
393 415
394 395
394 416
395 417
395 396
396 418
397 419
397 398
398 420
398 399
399 421
399 400
400 401
400 422
401 402
401 423
402 403
402 424
403 425
403 404
404 426
404 405
405 427
405 406
406 428
406 407
407 429
407 408
408 409
408 430
409 410
409 431
410 411
410 432
411 433
411 412
412 434
412 413
413 435
413 414
414 436
414 415
415 437
415 416
416 417
416 438
417 418
417 439
418 440
419 441
419 420
420 442
420 421
421 443
421 422
422 444
422 423
423 445
423 424
424 425
424 446
425 426
425 447
426 427
426 448
427 449
427 428
428 450
428 429
429 451
429 430
430 452
430 431
431 453
431 432
432 433
432 454
433 434
433 455
434 435
434 456
435 457
435 436
436 458
436 437
437 459
437 438
438 460
438 439
439 461
439 440
440 462
441 442
441 463
442 443
442 464
443 465
443 444
444 466
444 445
445 467
445 446
446 468
446 447
447 469
447 448
448 449
448 470
449 450
449 471
450 451
450 472
451 473
451 452
452 474
452 453
453 475
453 454
454 476
454 455
455 477
455 456
456 457
456 478
457 458
457 479
458 459
458 480
459 481
459 460
460 482
460 461
461 483
461 462
462 484
463 464
464 465
465 466
466 467
467 468
468 469
469 470
470 471
471 472
472 473
473 474
474 475
475 476
476 477
477 478
478 479
479 480
480 481
481 482
482 483
483 484
